20 28
0 1 73
0 2 2
0 5 99
0 6 94
0 7 95
0 9 83
0 10 11
1 2 44
1 3 85
1 7 95
1 12 48
2 3 70
2 4 76
2 17 22
3 10 62
3 11 6
4 8 40
4 12 9
4 18 4
5 14 46
5 15 69
6 13 51
6 16 36
7 11 35
8 14 24
8 19 7
9 10 90
9 13 27
